NAME: cuum520.tsp
TYPE: TSP
COMMENT: User-generated TSP file
DIMENSION: 520
EDGE_WEIGHT_TYPE: EUC_2D
NODE_COORD_SECTION
1 330.0 92.0
2 509.0 236.0
3 438.0 80.0
4 42.0 104.0
5 58.0 373.0
6 488.0 273.0
7 297.0 37.0
8 16.0 497.0
9 360.0 350.0
10 293.0 129.0
11 210.0 445.0
12 198.0 152.0
13 235.0 19.0
14 289.0 374.0
15 365.0 231.0
16 496.0 197.0
17 79.0 224.0
18 261.0 33.0
19 60.0 81.0
20 34.0 69.0
21 298.0 69.0
22 113.0 501.0
23 230.0 29.0
24 444.0 162.0
25 22.0 128.0
26 193.0 515.0
27 479.0 336.0
28 154.0 369.0
29 197.0 363.0
30 225.0 23.0
31 96.0 428.0
32 445.0 10.0
33 381.0 299.0
34 116.0 398.0
35 140.0 353.0
36 71.0 52.0
37 64.0 223.0
38 17.0 70.0
39 454.0 305.0
40 421.0 88.0
41 150.0 442.0
42 311.0 101.0
43 516.0 294.0
44 245.0 201.0
45 225.0 251.0
46 393.0 278.0
47 494.0 365.0
48 300.0 361.0
49 411.0 254.0
50 31.0 471.0
51 101.0 330.0
52 505.0 246.0
53 46.0 505.0
54 153.0 235.0
55 366.0 471.0
56 345.0 17.0
57 298.0 14.0
58 287.0 487.0
59 63.0 100.0
60 513.0 266.0
61 267.0 220.0
62 394.0 471.0
63 429.0 496.0
64 231.0 409.0
65 394.0 331.0
66 60.0 479.0
67 491.0 199.0
68 39.0 259.0
69 217.0 431.0
70 125.0 218.0
71 354.0 12.0
72 336.0 324.0
73 322.0 153.0
74 489.0 243.0
75 473.0 100.0
76 415.0 170.0
77 329.0 428.0
78 138.0 158.0
79 456.0 87.0
80 463.0 145.0
81 346.0 47.0
82 36.0 232.0
83 314.0 237.0
84 273.0 131.0
85 11.0 475.0
86 62.0 407.0
87 258.0 22.0
88 201.0 170.0
89 459.0 465.0
90 260.0 448.0
91 498.0 103.0
92 192.0 280.0
93 304.0 241.0
94 395.0 190.0
95 501.0 137.0
96 366.0 351.0
97 399.0 269.0
98 163.0 376.0
99 408.0 379.0
100 379.0 282.0
101 365.0 407.0
102 388.0 492.0
103 357.0 384.0
104 459.0 22.0
105 384.0 353.0
106 272.0 83.0
107 167.0 406.0
108 292.0 267.0
109 294.0 501.0
110 17.0 62.0
111 93.0 288.0
112 501.0 12.0
113 103.0 114.0
114 383.0 180.0
115 126.0 370.0
116 190.0 503.0
117 504.0 20.0
118 110.0 488.0
119 423.0 315.0
120 45.0 495.0
121 101.0 508.0
122 271.0 32.0
123 334.0 314.0
124 56.0 124.0
125 468.0 73.0
126 479.0 191.0
127 515.0 515.0
128 342.0 79.0
129 383.0 67.0
130 137.0 218.0
131 310.0 277.0
132 496.0 141.0
133 15.0 439.0
134 11.0 351.0
135 398.0 510.0
136 149.0 281.0
137 247.0 419.0
138 242.0 349.0
139 283.0 416.0
140 277.0 1.0
141 206.0 62.0
142 28.0 126.0
143 56.0 451.0
144 147.0 384.0
145 462.0 174.0
146 189.0 306.0
147 50.0 265.0
148 221.0 467.0
149 405.0 71.0
150 308.0 125.0
151 128.0 460.0
152 21.0 226.0
153 419.0 189.0
154 400.0 158.0
155 416.0 67.0
156 201.0 187.0
157 11.0 347.0
158 126.0 174.0
159 498.0 459.0
160 101.0 145.0
161 80.0 184.0
162 447.0 195.0
163 319.0 388.0
164 464.0 348.0
165 505.0 205.0
166 265.0 27.0
167 153.0 127.0
168 196.0 280.0
169 326.0 366.0
170 498.0 115.0
171 195.0 154.0
172 296.0 42.0
173 369.0 332.0
174 66.0 319.0
175 454.0 333.0
176 83.0 133.0
177 376.0 248.0
178 136.0 260.0
179 410.0 148.0
180 91.0 67.0
181 216.0 150.0
182 273.0 121.0
183 471.0 21.0
184 334.0 42.0
185 485.0 130.0
186 282.0 409.0
187 90.0 13.0
188 231.0 353.0
189 312.0 196.0
190 218.0 386.0
191 272.0 476.0
192 396.0 70.0
193 140.0 381.0
194 507.0 20.0
195 403.0 304.0
196 384.0 241.0
197 294.0 103.0
198 35.0 456.0
199 226.0 483.0
200 409.0 234.0
201 426.0 230.0
202 367.0 14.0
203 491.0 153.0
204 492.0 91.0
205 473.0 190.0
206 519.0 160.0
207 50.0 293.0
208 35.0 93.0
209 384.0 432.0
210 251.0 177.0
211 275.0 358.0
212 201.0 447.0
213 461.0 204.0
214 333.0 373.0
215 433.0 58.0
216 222.0 113.0
217 246.0 393.0
218 491.0 493.0
219 215.0 370.0
220 422.0 361.0
221 421.0 461.0
222 277.0 158.0
223 472.0 323.0
224 163.0 241.0
225 117.0 17.0
226 220.0 360.0
227 427.0 289.0
228 318.0 409.0
229 35.0 141.0
230 59.0 330.0
231 134.0 109.0
232 110.0 268.0
233 74.0 169.0
234 198.0 154.0
235 208.0 354.0
236 400.0 152.0
237 392.0 133.0
238 208.0 508.0
239 118.0 474.0
240 414.0 1.0
241 472.0 164.0
242 377.0 332.0
243 251.0 315.0
244 322.0 13.0
245 27.0 435.0
246 110.0 295.0
247 1.0 470.0
248 385.0 211.0
249 59.0 175.0
250 326.0 512.0
251 354.0 44.0
252 399.0 369.0
253 266.0 415.0
254 488.0 270.0
255 442.0 505.0
256 56.0 373.0
257 398.0 393.0
258 402.0 409.0
259 185.0 48.0
260 40.0 404.0
261 231.0 76.0
262 175.0 470.0
263 422.0 65.0
264 1.0 447.0
265 50.0 394.0
266 142.0 198.0
267 87.0 124.0
268 167.0 284.0
269 139.0 349.0
270 357.0 327.0
271 53.0 211.0
272 196.0 444.0
273 500.0 158.0
274 431.0 58.0
275 382.0 449.0
276 361.0 188.0
277 232.0 374.0
278 352.0 406.0
279 349.0 388.0
280 128.0 353.0
281 96.0 168.0
282 496.0 108.0
283 409.0 485.0
284 226.0 230.0
285 391.0 67.0
286 171.0 72.0
287 42.0 517.0
288 333.0 110.0
289 6.0 8.0
290 324.0 240.0
291 92.0 296.0
292 327.0 259.0
293 186.0 229.0
294 18.0 10.0
295 177.0 320.0
296 344.0 140.0
297 371.0 61.0
298 87.0 317.0
299 182.0 260.0
300 409.0 37.0
301 88.0 226.0
302 93.0 486.0
303 212.0 119.0
304 385.0 217.0
305 18.0 321.0
306 395.0 219.0
307 91.0 176.0
308 8.0 377.0
309 148.0 325.0
310 170.0 134.0
311 229.0 418.0
312 245.0 417.0
313 41.0 137.0
314 181.0 260.0
315 357.0 250.0
316 91.0 215.0
317 190.0 197.0
318 149.0 32.0
319 492.0 332.0
320 174.0 329.0
321 171.0 75.0
322 7.0 251.0
323 44.0 428.0
324 61.0 8.0
325 423.0 469.0
326 286.0 249.0
327 3.0 355.0
328 359.0 338.0
329 361.0 252.0
330 70.0 297.0
331 495.0 41.0
332 128.0 182.0
333 87.0 285.0
334 440.0 2.0
335 1.0 490.0
336 231.0 329.0
337 105.0 378.0
338 65.0 348.0
339 62.0 500.0
340 17.0 146.0
341 437.0 224.0
342 260.0 420.0
343 154.0 386.0
344 21.0 250.0
345 303.0 325.0
346 498.0 277.0
347 247.0 179.0
348 59.0 436.0
349 297.0 421.0
350 402.0 88.0
351 343.0 55.0
352 453.0 155.0
353 444.0 360.0
354 140.0 357.0
355 441.0 167.0
356 450.0 512.0
357 3.0 91.0
358 361.0 131.0
359 470.0 441.0
360 335.0 32.0
361 518.0 141.0
362 214.0 287.0
363 218.0 234.0
364 188.0 80.0
365 428.0 16.0
366 338.0 402.0
367 226.0 303.0
368 277.0 231.0
369 242.0 331.0
370 53.0 488.0
371 144.0 49.0
372 16.0 348.0
373 374.0 341.0
374 519.0 187.0
375 506.0 163.0
376 278.0 258.0
377 353.0 329.0
378 313.0 447.0
379 388.0 181.0
380 94.0 474.0
381 59.0 437.0
382 356.0 497.0
383 88.0 507.0
384 52.0 419.0
385 138.0 338.0
386 204.0 510.0
387 337.0 318.0
388 45.0 481.0
389 264.0 408.0
390 94.0 20.0
391 483.0 49.0
392 232.0 301.0
393 35.0 66.0
394 391.0 338.0
395 224.0 384.0
396 419.0 18.0
397 30.0 343.0
398 39.0 309.0
399 474.0 388.0
400 375.0 298.0
401 208.0 9.0
402 376.0 97.0
403 282.0 223.0
404 139.0 65.0
405 468.0 337.0
406 34.0 138.0
407 26.0 510.0
408 140.0 287.0
409 475.0 86.0
410 382.0 38.0
411 28.0 194.0
412 333.0 490.0
413 118.0 393.0
414 494.0 464.0
415 407.0 225.0
416 186.0 267.0
417 346.0 245.0
418 28.0 130.0
419 51.0 73.0
420 119.0 231.0
421 208.0 459.0
422 39.0 392.0
423 327.0 78.0
424 486.0 493.0
425 43.0 177.0
426 459.0 232.0
427 414.0 478.0
428 295.0 45.0
429 495.0 331.0
430 479.0 419.0
431 20.0 251.0
432 518.0 303.0
433 405.0 250.0
434 507.0 360.0
435 135.0 105.0
436 344.0 387.0
437 453.0 200.0
438 243.0 393.0
439 35.0 101.0
440 320.0 167.0
441 126.0 315.0
442 67.0 4.0
443 297.0 49.0
444 75.0 265.0
445 66.0 75.0
446 233.0 188.0
447 226.0 182.0
448 133.0 225.0
449 459.0 125.0
450 480.0 10.0
451 463.0 257.0
452 24.0 105.0
453 83.0 225.0
454 469.0 396.0
455 58.0 203.0
456 138.0 238.0
457 200.0 345.0
458 497.0 280.0
459 228.0 483.0
460 386.0 442.0
461 116.0 50.0
462 204.0 48.0
463 20.0 67.0
464 443.0 3.0
465 272.0 204.0
466 426.0 502.0
467 360.0 171.0
468 157.0 162.0
469 16.0 85.0
470 260.0 225.0
471 310.0 326.0
472 229.0 230.0
473 41.0 314.0
474 504.0 344.0
475 399.0 446.0
476 110.0 129.0
477 3.0 447.0
478 422.0 327.0
479 129.0 438.0
480 354.0 307.0
481 13.0 19.0
482 397.0 422.0
483 509.0 405.0
484 129.0 329.0
485 174.0 329.0
486 201.0 446.0
487 115.0 352.0
488 61.0 237.0
489 510.0 333.0
490 198.0 190.0
491 42.0 113.0
492 132.0 299.0
493 78.0 509.0
494 121.0 20.0
495 371.0 293.0
496 466.0 257.0
497 15.0 204.0
498 318.0 253.0
499 371.0 44.0
500 161.0 52.0
501 260.0 231.0
502 265.0 368.0
503 484.0 382.0
504 498.0 13.0
505 35.0 122.0
506 388.0 383.0
507 198.0 72.0
508 88.0 102.0
509 231.0 420.0
510 340.0 386.0
511 295.0 314.0
512 309.0 139.0
513 469.0 432.0
514 513.0 520.0
515 483.0 428.0
516 40.0 238.0
517 94.0 135.0
518 306.0 493.0
519 162.0 387.0
520 319.0 85.0
EOF





